Version identifier: 12.10.0.0 | 2019-11-26 | 843d4de
CPXPARAM_WorkMem                                 28672
Tried aggregator 2 times.
MIP Presolve eliminated 6 rows and 0 columns.
MIP Presolve added 12 rows and 0 columns.
Aggregator did 30 substitutions.
Reduced MIP has 48 rows, 50 columns, and 200 nonzeros.
Reduced MIP has 50 binaries, 0 generals, 0 SOSs, and 0 indicators.
Presolve time = 0,00 sec. (0,37 ticks)
Found incumbent of value 186,000000 after 0,00 sec. (0,43 ticks)
Probing time = 0,00 sec. (0,13 ticks)
Tried aggregator 1 time.
Detecting symmetries...
Reduced MIP has 48 rows, 50 columns, and 200 nonzeros.
Reduced MIP has 50 binaries, 0 generals, 0 SOSs, and 0 indicators.
Presolve time = 0,00 sec. (0,16 ticks)
Probing time = 0,00 sec. (0,13 ticks)
Clique table members: 200.
MIP emphasis: balance optimality and feasibility.
MIP search method: dynamic search.
Parallel mode: deterministic, using up to 16 threads.
Root relaxation solution time = 0,00 sec. (0,07 ticks)

        Nodes                                         Cuts/
   Node  Left     Objective  IInf  Best Integer    Best Bound    ItCnt     Gap

*     0+    0                          186,0000        0,0000           100,00%
*     0+    0                          176,0000        0,0000           100,00%
*     0+    0                          150,0000        0,0000           100,00%
      0     0      112,0000    31      150,0000      112,0000        9   25,33%
      0     0      114,6519    31      150,0000     Cuts: 112       30   23,57%
      0     0      116,0195    31      150,0000      Cuts: 76       53   22,65%
      0     0      116,3349    31      150,0000      Cuts: 87       61   22,44%
*     0+    0                          145,0000      116,3349            19,77%
      0     0      116,3532    31      145,0000   ZeroHalf: 3       62   19,76%
      0     0      116,3544    31      145,0000   ZeroHalf: 1       63   19,76%
Detecting symmetries...
      0     0      116,4444    31      145,0000      Cuts: 10       69   19,69%
      0     0      116,4514    31      145,0000   ZeroHalf: 1       70   19,69%
      0     0        cutoff            145,0000      145,0000       70    0,00%
Elapsed time = 0,03 sec. (8,75 ticks, tree = 0,01 MB, solutions = 4)

Clique cuts applied:  12
Cover cuts applied:  16
Mixed integer rounding cuts applied:  5
Zero-half cuts applied:  4
Gomory fractional cuts applied:  3

Root node processing (before b&c):
  Real time             =    0,03 sec. (8,76 ticks)
Parallel b&c, 16 threads:
  Real time             =    0,00 sec. (0,00 ticks)
  Sync time (average)   =    0,00 sec.
  Wait time (average)   =    0,00 sec.
                          ------------
Total (root+branch&cut) =    0,03 sec. (8,76 ticks)
